nV = 	15;
nS = 	22;
H = 	1800;
T = 	42000;
stCap = 	950;
reclN = 	2;
stackbefore = 	10;
tMaxBetwRecl = 	300;
delayMax = 	9200;
sum_delay_max = 	330000;
discrPadPos = 	1;
discrStackStart = 	1440;
mulTonnage = 	1000;
mulPileLen = 	15;
hourDiscr = 	60;
 % ----------------------------------------- 
eta	 = [14949,15614,18608,23626,24821,25955,26826,27958,28571,29789,32194,32414,33056,37899,36664];
whichV	 = [  1,  2,  2,  3,  4,  4,  5,  5,  6,  6,  7,  7,  8,  9, 10, 11, 12, 13, 13, 14, 15, 15];
dS__	 = [  3,  5,  5,  5,  5,  3,  5,  7,  5,  5,  5,  5,  3,  5,  5,  5,  5,  5,  5,  7,  5,  5];
dR	 = [174,1003,170,715,270,641,877,729,284,1068,664,1017,922,242,654,901,823,287,212,438,409,278];

 % ----------------------------------------- 

